
Gurobi 6.5.2 (linux64) logging started Tue Sep 20 21:16:31 2016


Gurobi 6.5.2 (linux64) logging started Tue Sep 20 21:16:31 2016

Optimize a model with 101 rows, 418 columns and 859 nonzeros
Coefficient statistics:
  Matrix range    [1e+00, 2e+00]
  Objective range [1e+00, 1e+02]
  Bounds range    [1e+00, 1e+00]
  RHS range       [1e+00, 1e+00]
Presolve removed 42 rows and 32 columns
Presolve time: 0.00s
Presolved: 59 rows, 386 columns, 778 nonzeros
Variable types: 0 continuous, 386 integer (386 binary)

Root relaxation: objective 1.143000e+03, 69 iterations, 0.00 seconds

    Nodes    |    Current Node    |     Objective Bounds      |     Work
 Expl Unexpl |  Obj  Depth IntInf | Incumbent    BestBd   Gap | It/Node Time

     0     0 1143.00000    0    2          - 1143.00000      -     -    0s
     0     0 1148.66667    0   16          - 1148.66667      -     -    0s
     0     0 1150.00000    0   18          - 1150.00000      -     -    0s
     0     0 1150.00000    0   18          - 1150.00000      -     -    0s
H    0     0                    1160.0000000 1150.00000  0.86%     -    0s
H    0     0                    1151.0000000 1150.00000  0.09%     -    0s
     0     0 1150.00000    0   18 1151.00000 1150.00000  0.09%     -    0s

Cutting planes:
  Gomory: 2
  Cover: 3
  Lazy constraints: 8

Explored 0 nodes (85 simplex iterations) in 0.02 seconds
Thread count was 8 (of 8 available processors)

Optimal solution found (tolerance 1.00e-04)
Best objective 1.151000000000e+03, best bound 1.151000000000e+03, gap 0.0%
